31 62
27 68
37 69
43 67
52 64
63 69
62 63
57 58
49 49
58 48
62 42
61 33
56 37
52 41
52 33
58 27
59 15
51 21
48 28
45 35
42 41
38 46
21 47
16 57
17 63
5 64
8 52
12 42
7 38
17 33
20 26
5 25
10 17
5 6
13 13
21 10
30 15
39 10
46 10
36 16
32 22
27 23
25 32
31 32
40 30
32 39
30 40
30 48
37 52
42 57
25 55
31 62
